003 003 004 004 004 005 005 006 006 009 009 010 015 012 016 008 011 010 009 010 011 014 012 016 017 016 017 015 016 011 012
003 003 003 004 003 004 004 006 010 005 011 008 010 011 012 013 006 010 008 006 008 014 015 015 016 012 014 015 015 010 015
002 003 003 003 003 003 003 006 006 005 009 008 007 009 008 013 016 014 007 012 009 013 013 011 011 009 018 014 011 013 011
003 002 002 003 003 004 004 005 006 005 006 005 006 008 007 007 008 007 004 009 007 010 012 011 011 007 019 017 015 013 011
003 003 002 003 002 004 003 004 004 005 005 004 003 005 010 005 004 004 003 005 006 015 014 010 010 011 019 016 016 020 015
002 002 003 003 003 002 002 002 002 003 002 003 002 005 008 004 004 002 002 004 006 009 012 013 014 013 021 021 018 019 018
002 002 002 002 004 002 002 002 001 001 001 002 003 005 006 004 004 002 002 006 006 010 013 012 013 013 017 025 020 024 013
001 002 002 003 004 003 003 001 001 000 001 002 005 007 006 003 003 002 002 005 009 010 013 014 016 021 021 021 019 022 015
001 001 002 002 002 003 001 000 000 001 001 002 002 003 002 003 003 003 003 006 013 014 016 022 017 023 015 021 017 013 018
002 003 002 002 002 002 002 001 000 000 001 001 002 003 004 004 003 003 002 003 007 012 014 024 017 017 022 020 023 021 017
003 006 007 004 002 002 002 001 001 001 001 001 001 002 003 003 003 004 001 002 005 011 014 021 019 024 021 025 017 024 015
004 013 010 006 004 003 002 002 002 001 001 001 001 002 003 003 003 004 002 002 006 010 013 024 020 015 025 017 017 022 017
007 015 010 002 003 003 003 003 003 001 001 001 001 001 001 002 002 003 002 002 001 012 014 015 028 022 029 018 033 033 018
023 006 003 002 002 003 004 004 003 002 002 003 002 002 002 002 002 002 003 001 001 004 007 015 025 033 040 030 028 017 015
006 002 003 003 002 003 006 004 004 002 002 002 002 002 002 001 002 001 000 000 000 002 005 010 026 036 039 034 034 023 015
003 003 003 003 003 011 021 005 002 001 001 002 001 002 002 001 001 001 000 000 000 001 007 008 022 029 039 029 024 019 019
002 002 004 006 011 011 022 006 003 002 002 001 001 002 003 002 001 001 000 000 000 001 002 006 011 018 036 035 013 015 015
002 002 002 010 011 014 017 013 004 003 002 001 002 003 007 003 001 000 000 000 000 000 002 003 008 010 034 035 014 012 017
006 004 010 012 010 012 010 016 003 003 002 002 002 003 008 005 001 000 000 000 001 001 001 001 005 005 010 018 014 015 035
011 008 011 005 006 006 006 008 005 003 008 002 002 003 011 006 002 000 000 000 000 000 001 002 004 005 006 017 012 021 034
010 010 007 004 005 004 006 010 012 008 009 003 003 003 021 021 004 001 000 000 000 001 001 -99 -99 002 003 015 017 021 021
003 005 004 004 003 004 007 014 013 011 007 005 002 003 016 015 005 002 000 000 001 001 001 -99 -99 002 001 009 012 011 008
002 003 002 003 005 009 009 012 010 009 007 005 004 003 010 010 007 001 001 001 001 002 003 004 -99 002 001 009 010 008 006
001 001 002 003 007 013 015 009 005 010 008 008 006 004 006 006 006 001 002 001 001 003 004 004 003 002 -99 -99 007 005 006
001 002 002 002 009 012 010 010 006 007 010 008 010 009 013 010 006 002 005 003 002 003 004 004 003 -99 -99 -99 -99 005 006
000 001 003 004 009 013 009 013 012 010 008 005 006 008 014 013 007 006 010 006 002 004 003 005 -99 -99 -99 -99 -99 005 005
001 003 005 006 006 013 012 014 011 007 007 005 008 022 017 017 013 014 009 007 006 010 009 -99 -99 -99 -99 -99 -99 005 006
006 006 009 007 012 017 009 007 004 006 012 012 015 025 008 015 018 010 008 012 012 013 014 005 -99 -99 -99 -99 009 006 007
006 009 013 007 009 015 006 004 002 009 014 010 029 024 007 007 011 009 010 021 018 031 014 005 004 004 005 011 011 012 008
004 007 010 004 002 009 006 011 005 011 012 012 018 028 003 004 009 011 014 026 052 075 030 009 007 005 006 010 014 015 010
001 003 003 003 004 006 008 012 008 009 004 030 031 019 004 005 007 014 017 033 056 054 039 015 010 008 009 009 018 020 014
003 003 003 003 003 002 005 012 009 006 009 031 043 017 005 009 005 015 017 025 047 035 023 022 012 012 006 009 024 014 009
003 004 004 002 002 001 002 005 006 005 009 010 036 018 013 010 007 010 010 017 013 035 016 019 016 018 011 010 015 006 008
005 005 003 002 002 001 001 001 003 003 003 005 017 022 018 011 012 010 013 021 029 029 013 013 021 029 021 008 012 007 007
005 003 004 003 002 001 001 001 001 001 002 001 002 012 019 016 024 011 014 016 021 020 012 012 023 028 030 014 015 008 006
002 001 001 001 001 003 001 000 000 000 000 001 001 004 012 005 025 016 014 024 033 018 013 017 020 037 043 031 029 012 010
001 000 001 000 000 000 000 000 000 000 000 000 000 001 003 003 020 011 015 030 018 012 015 009 010 016 046 044 052 037 023
000 000 001 001 000 000 000 000 000 000 000 000 000 000 000 001 005 007 039 015 015 005 015 013 011 014 028 038 035 057 035
000 001 006 006 002 000 000 000 000 000 000 000 000 000 000 000 000 002 005 005 012 003 004 005 007 009 020 048 066 080 069
000 002 007 005 004 003 002 001 000 000 000 000 000 000 000 000 000 001 002 001 005 004 002 002 006 005 010 025 047 075 091
000 001 001 002 004 005 004 002 000 000 000 000 000 000 000 000 000 000 000 002 003 002 001 001 002 002 005 013 028 056 092
000 000 000 001 003 004 005 003 000 000 000 000 000 000 000 000 000 000 000 001 002 001 001 001 001 000 001 005 012 033 051
000 000 000 001 001 005 003 002 000 000 000 000 000 000 000 000 000 000 000 000 000 001 001 004 006 001 002 004 010 004 014
000 000 000 000 001 003 003 001 000 000 000 000 000 000 000 000 000 000 000 000 000 001 001 006 011 001 004 007 008 004 007
000 000 000 001 001 000 001 001 000 000 000 000 000 000 000 000 000 000 000 000 000 002 002 019 008 002 010 014 007 005 003
000 000 000 000 000 000 000 000 000 000 000 000 000 000 000 000 000 000 000 000 000 000 002 016 011 004 010 028 010 005 002
000 000 000 000 000 000 000 000 000 000 000 000 000 000 000 000 000 000 000 000 000 000 002 018 007 004 019 023 008 005 001
001 001 000 000 000 000 000 001 000 000 000 000 000 000 000 000 000 001 004 000 000 000 001 005 004 005 018 031 009 005 003
001 001 000 000 -99 -99 000 000 001 000 000 000 000 000 -99 000 000 003 002 001 003 001 001 000 002 006 010 033 010 007 005
000 000 000 000 -99 000 000 000 001 001 000 000 000 000 000 -99 000 003 001 008 010 001 001 000 001 002 006 047 026 013 007
000 000 000 000 000 000 000 000 000 000 000 000 000 000 000 000 000 000 002 015 004 002 005 002 000 001 003 013 010 009 006
000 000 000 000 000 000 000 000 000 000 001 001 001 000 000 000 000 000 002 006 004 004 017 006 002 001 002 003 001 002 002
000 000 000 000 000 000 000 000 000 000 001 002 003 002 002 001 000 000 001 003 001 005 034 017 003 001 000 001 000 001 000
-99 000 000 -99 000 000 000 000 000 000 001 001 006 009 010 002 000 001 001 000 000 016 015 006 003 000 000 000 000 000 000
-99 -99 -99 -99 -99 -99 -99 -99 000 000 001 002 010 019 008 008 005 003 002 000 001 008 005 004 001 000 000 -99 -99 -99 -99
